c turning on binary mode checking
c parsing input formula with 259840 variables and 1039934 clauses
c finished parsing, read 23160663 bytes from proof file
c detected empty clause; start verification via backward checking
c 9683 of 1039934 clauses in core                            
c 9220 of 603394 lemmas in core using 76512 resolution steps
c 0 RAT lemmas in core; 628 redundant literals in core lemmas
s VERIFIED
c verification time: 2.674 seconds
